\* Probes_Placement_Model *\
Maximize
Peso_total: 44 combinacoes_10_11_18_19_1 + 44 combinacoes_10_11_18_19_2
 + 70 combinacoes_10_11_18_19_20_1 + 56 combinacoes_10_11_18_19_20_2
 + 36 combinacoes_10_11_18_19_20_3 + 56 combinacoes_10_11_18_19_20_4
 + 34 combinacoes_10_11_18_19_20_5 + 24 combinacoes_10_11_18_19_20_6
 + 36 combinacoes_10_11_18_21_1 + 38 combinacoes_10_11_18_21_2
 + 42 combinacoes_11_18_19_20_1 + 28 combinacoes_11_18_19_20_2
 + 30 combinacoes_12_10_11_18_1 + 50 combinacoes_12_10_11_18_19_1
 + 50 combinacoes_12_10_11_18_19_2 + 76 combinacoes_12_10_11_18_19_20_1
 + 30 combinacoes_12_10_11_18_19_20_10 + 10 combinacoes_12_10_11_18_19_20_11
 + 40 combinacoes_12_10_11_18_19_20_12 + 18 combinacoes_12_10_11_18_19_20_13
 + 16 combinacoes_12_10_11_18_19_20_14 + 62 combinacoes_12_10_11_18_19_20_2
 + 42 combinacoes_12_10_11_18_19_20_3 + 62 combinacoes_12_10_11_18_19_20_4
 + 40 combinacoes_12_10_11_18_19_20_5 + 30 combinacoes_12_10_11_18_19_20_6
 + 12 combinacoes_12_10_11_18_19_20_7 + 66 combinacoes_12_10_11_18_19_20_8
 + 44 combinacoes_12_10_11_18_19_20_9 + 18 combinacoes_12_10_11_18_19_3
 + 54 combinacoes_12_10_11_18_19_4 + 18 combinacoes_12_10_11_18_19_5
 + 28 combinacoes_12_10_11_18_19_6 + 34 combinacoes_12_10_11_18_2
 + 42 combinacoes_12_10_11_18_21_1 + 44 combinacoes_12_10_11_18_21_2
 + 12 combinacoes_12_10_11_18_21_3 + 48 combinacoes_12_10_11_18_21_4
 + 10 combinacoes_12_10_11_18_21_5 + 22 combinacoes_12_10_11_18_21_6
 + 34 combinacoes_18_11_10_12_1 + 30 combinacoes_18_11_10_12_2
 + 42 combinacoes_18_11_10_9_1 + 38 combinacoes_18_11_10_9_2
 + 44 combinacoes_19_18_11_10_1 + 54 combinacoes_19_18_11_10_12_1
 + 50 combinacoes_19_18_11_10_12_2 + 28 combinacoes_19_18_11_10_12_3
 + 50 combinacoes_19_18_11_10_12_4 + 18 combinacoes_19_18_11_10_12_5
 + 18 combinacoes_19_18_11_10_12_6 + 44 combinacoes_19_18_11_10_2
 + 62 combinacoes_19_18_11_10_9_1 + 58 combinacoes_19_18_11_10_9_2
 + 28 combinacoes_19_18_11_10_9_3 + 58 combinacoes_19_18_11_10_9_4
 + 26 combinacoes_19_18_11_10_9_5 + 26 combinacoes_19_18_11_10_9_6
 + 28 combinacoes_20_19_18_11_1 + 56 combinacoes_20_19_18_11_10_1
 + 66 combinacoes_20_19_18_11_10_12_1 + 40 combinacoes_20_19_18_11_10_12_10
 + 18 combinacoes_20_19_18_11_10_12_11 + 42 combinacoes_20_19_18_11_10_12_12
 + 10 combinacoes_20_19_18_11_10_12_13 + 12 combinacoes_20_19_18_11_10_12_14
 + 62 combinacoes_20_19_18_11_10_12_2 + 40 combinacoes_20_19_18_11_10_12_3
 + 62 combinacoes_20_19_18_11_10_12_4 + 30 combinacoes_20_19_18_11_10_12_5
 + 30 combinacoes_20_19_18_11_10_12_6 + 16 combinacoes_20_19_18_11_10_12_7
 + 76 combinacoes_20_19_18_11_10_12_8 + 44 combinacoes_20_19_18_11_10_12_9
 + 56 combinacoes_20_19_18_11_10_2 + 24 combinacoes_20_19_18_11_10_3
 + 70 combinacoes_20_19_18_11_10_4 + 34 combinacoes_20_19_18_11_10_5
 + 36 combinacoes_20_19_18_11_10_6 + 74 combinacoes_20_19_18_11_10_9_1
 + 48 combinacoes_20_19_18_11_10_9_10 + 18 combinacoes_20_19_18_11_10_9_11
 + 50 combinacoes_20_19_18_11_10_9_12 + 18 combinacoes_20_19_18_11_10_9_13
 + 20 combinacoes_20_19_18_11_10_9_14 + 70 combinacoes_20_19_18_11_10_9_2
 + 40 combinacoes_20_19_18_11_10_9_3 + 70 combinacoes_20_19_18_11_10_9_4
 + 38 combinacoes_20_19_18_11_10_9_5 + 38 combinacoes_20_19_18_11_10_9_6
 + 16 combinacoes_20_19_18_11_10_9_7 + 84 combinacoes_20_19_18_11_10_9_8
 + 52 combinacoes_20_19_18_11_10_9_9 + 42 combinacoes_20_19_18_11_2
 + 16 combinacoes_20_19_18_21_1 + 24 combinacoes_20_19_18_21_2
 + 38 combinacoes_21_18_11_10_1 + 48 combinacoes_21_18_11_10_12_1
 + 44 combinacoes_21_18_11_10_12_2 + 22 combinacoes_21_18_11_10_12_3
 + 42 combinacoes_21_18_11_10_12_4 + 10 combinacoes_21_18_11_10_12_5
 + 12 combinacoes_21_18_11_10_12_6 + 36 combinacoes_21_18_11_10_2
 + 56 combinacoes_21_18_11_10_9_1 + 52 combinacoes_21_18_11_10_9_2
 + 22 combinacoes_21_18_11_10_9_3 + 50 combinacoes_21_18_11_10_9_4
 + 18 combinacoes_21_18_11_10_9_5 + 20 combinacoes_21_18_11_10_9_6
 + 24 combinacoes_21_18_19_20_1 + 16 combinacoes_21_18_19_20_2
 + 38 combinacoes_9_10_11_18_1 + 58 combinacoes_9_10_11_18_19_1
 + 58 combinacoes_9_10_11_18_19_2 + 84 combinacoes_9_10_11_18_19_20_1
 + 38 combinacoes_9_10_11_18_19_20_10 + 18 combinacoes_9_10_11_18_19_20_11
 + 40 combinacoes_9_10_11_18_19_20_12 + 18 combinacoes_9_10_11_18_19_20_13
 + 16 combinacoes_9_10_11_18_19_20_14 + 70 combinacoes_9_10_11_18_19_20_2
 + 50 combinacoes_9_10_11_18_19_20_3 + 70 combinacoes_9_10_11_18_19_20_4
 + 48 combinacoes_9_10_11_18_19_20_5 + 38 combinacoes_9_10_11_18_19_20_6
 + 20 combinacoes_9_10_11_18_19_20_7 + 74 combinacoes_9_10_11_18_19_20_8
 + 52 combinacoes_9_10_11_18_19_20_9 + 26 combinacoes_9_10_11_18_19_3
 + 62 combinacoes_9_10_11_18_19_4 + 26 combinacoes_9_10_11_18_19_5
 + 28 combinacoes_9_10_11_18_19_6 + 42 combinacoes_9_10_11_18_2
 + 50 combinacoes_9_10_11_18_21_1 + 52 combinacoes_9_10_11_18_21_2
 + 20 combinacoes_9_10_11_18_21_3 + 56 combinacoes_9_10_11_18_21_4
 + 18 combinacoes_9_10_11_18_21_5 + 22 combinacoes_9_10_11_18_21_6
Subject To
_dummy: __dummy = 0
Max_Uma_Sonda_Por_MEdicao10_11: __dummy <= 1
Max_Uma_Sonda_Por_MEdicao10_11_18: __dummy <= 1
Max_Uma_Sonda_Por_MEdicao10_11_18_19: __dummy <= -87
Max_Uma_Sonda_Por_MEdicao10_11_18_19_20: __dummy <= -275
Max_Uma_Sonda_Por_MEdicao10_11_18_21: __dummy <= -73
Max_Uma_Sonda_Por_MEdicao10_12: __dummy <= 1
Max_Uma_Sonda_Por_MEdicao10_9: __dummy <= 1
Max_Uma_Sonda_Por_MEdicao11_10: __dummy <= 1
Max_Uma_Sonda_Por_MEdicao11_10_12: __dummy <= 1
Max_Uma_Sonda_Por_MEdicao11_10_9: __dummy <= 1
Max_Uma_Sonda_Por_MEdicao11_18: __dummy <= 1
Max_Uma_Sonda_Por_MEdicao11_18_19: __dummy <= 1
Max_Uma_Sonda_Por_MEdicao11_18_19_20: __dummy <= -69
Max_Uma_Sonda_Por_MEdicao11_18_21: __dummy <= 1
Max_Uma_Sonda_Por_MEdicao12_10: __dummy <= 1
Max_Uma_Sonda_Por_MEdicao12_10_11: __dummy <= 1
Max_Uma_Sonda_Por_MEdicao12_10_11_18: __dummy <= -63
Max_Uma_Sonda_Por_MEdicao12_10_11_18_19: __dummy <= -217
Max_Uma_Sonda_Por_MEdicao12_10_11_18_19_20: __dummy <= -547
Max_Uma_Sonda_Por_MEdicao12_10_11_18_21: __dummy <= -177
Max_Uma_Sonda_Por_MEdicao12_10_9: __dummy <= 1
Max_Uma_Sonda_Por_MEdicao18_11: __dummy <= 1
Max_Uma_Sonda_Por_MEdicao18_11_10: __dummy <= 1
Max_Uma_Sonda_Por_MEdicao18_11_10_12: __dummy <= -63
Max_Uma_Sonda_Por_MEdicao18_11_10_9: __dummy <= -79
Max_Uma_Sonda_Por_MEdicao18_19: __dummy <= 1
Max_Uma_Sonda_Por_MEdicao18_19_20: __dummy <= 1
Max_Uma_Sonda_Por_MEdicao18_21: __dummy <= 1
Max_Uma_Sonda_Por_MEdicao19_18: __dummy <= 1
Max_Uma_Sonda_Por_MEdicao19_18_11: __dummy <= 1
Max_Uma_Sonda_Por_MEdicao19_18_11_10: __dummy <= -87
Max_Uma_Sonda_Por_MEdicao19_18_11_10_12: __dummy <= -217
Max_Uma_Sonda_Por_MEdicao19_18_11_10_9: __dummy <= -257
Max_Uma_Sonda_Por_MEdicao19_18_21: __dummy <= 1
Max_Uma_Sonda_Por_MEdicao19_20: __dummy <= 1
Max_Uma_Sonda_Por_MEdicao20_19: __dummy <= 1
Max_Uma_Sonda_Por_MEdicao20_19_18: __dummy <= 1
Max_Uma_Sonda_Por_MEdicao20_19_18_11: __dummy <= -69
Max_Uma_Sonda_Por_MEdicao20_19_18_11_10: __dummy <= -275
Max_Uma_Sonda_Por_MEdicao20_19_18_11_10_12: __dummy <= -547
Max_Uma_Sonda_Por_MEdicao20_19_18_11_10_9: __dummy <= -635
Max_Uma_Sonda_Por_MEdicao20_19_18_21: __dummy <= -39
Max_Uma_Sonda_Por_MEdicao21_18: __dummy <= 1
Max_Uma_Sonda_Por_MEdicao21_18_11: __dummy <= 1
Max_Uma_Sonda_Por_MEdicao21_18_11_10: __dummy <= -73
Max_Uma_Sonda_Por_MEdicao21_18_11_10_12: __dummy <= -177
Max_Uma_Sonda_Por_MEdicao21_18_11_10_9: __dummy <= -217
Max_Uma_Sonda_Por_MEdicao21_18_19: __dummy <= 1
Max_Uma_Sonda_Por_MEdicao21_18_19_20: __dummy <= -39
Max_Uma_Sonda_Por_MEdicao9_10: __dummy <= 1
Max_Uma_Sonda_Por_MEdicao9_10_11: __dummy <= 1
Max_Uma_Sonda_Por_MEdicao9_10_11_18: __dummy <= -79
Max_Uma_Sonda_Por_MEdicao9_10_11_18_19: __dummy <= -257
Max_Uma_Sonda_Por_MEdicao9_10_11_18_19_20: __dummy <= -635
Max_Uma_Sonda_Por_MEdicao9_10_11_18_21: __dummy <= -217
Max_Uma_Sonda_Por_MEdicao9_10_12: __dummy <= 1
Bounds
 __dummy = 0
Binaries
combinacoes_10_11_18_19_1
combinacoes_10_11_18_19_2
combinacoes_10_11_18_19_20_1
combinacoes_10_11_18_19_20_2
combinacoes_10_11_18_19_20_3
combinacoes_10_11_18_19_20_4
combinacoes_10_11_18_19_20_5
combinacoes_10_11_18_19_20_6
combinacoes_10_11_18_21_1
combinacoes_10_11_18_21_2
combinacoes_11_18_19_20_1
combinacoes_11_18_19_20_2
combinacoes_12_10_11_18_1
combinacoes_12_10_11_18_19_1
combinacoes_12_10_11_18_19_2
combinacoes_12_10_11_18_19_20_1
combinacoes_12_10_11_18_19_20_10
combinacoes_12_10_11_18_19_20_11
combinacoes_12_10_11_18_19_20_12
combinacoes_12_10_11_18_19_20_13
combinacoes_12_10_11_18_19_20_14
combinacoes_12_10_11_18_19_20_2
combinacoes_12_10_11_18_19_20_3
combinacoes_12_10_11_18_19_20_4
combinacoes_12_10_11_18_19_20_5
combinacoes_12_10_11_18_19_20_6
combinacoes_12_10_11_18_19_20_7
combinacoes_12_10_11_18_19_20_8
combinacoes_12_10_11_18_19_20_9
combinacoes_12_10_11_18_19_3
combinacoes_12_10_11_18_19_4
combinacoes_12_10_11_18_19_5
combinacoes_12_10_11_18_19_6
combinacoes_12_10_11_18_2
combinacoes_12_10_11_18_21_1
combinacoes_12_10_11_18_21_2
combinacoes_12_10_11_18_21_3
combinacoes_12_10_11_18_21_4
combinacoes_12_10_11_18_21_5
combinacoes_12_10_11_18_21_6
combinacoes_18_11_10_12_1
combinacoes_18_11_10_12_2
combinacoes_18_11_10_9_1
combinacoes_18_11_10_9_2
combinacoes_19_18_11_10_1
combinacoes_19_18_11_10_12_1
combinacoes_19_18_11_10_12_2
combinacoes_19_18_11_10_12_3
combinacoes_19_18_11_10_12_4
combinacoes_19_18_11_10_12_5
combinacoes_19_18_11_10_12_6
combinacoes_19_18_11_10_2
combinacoes_19_18_11_10_9_1
combinacoes_19_18_11_10_9_2
combinacoes_19_18_11_10_9_3
combinacoes_19_18_11_10_9_4
combinacoes_19_18_11_10_9_5
combinacoes_19_18_11_10_9_6
combinacoes_20_19_18_11_1
combinacoes_20_19_18_11_10_1
combinacoes_20_19_18_11_10_12_1
combinacoes_20_19_18_11_10_12_10
combinacoes_20_19_18_11_10_12_11
combinacoes_20_19_18_11_10_12_12
combinacoes_20_19_18_11_10_12_13
combinacoes_20_19_18_11_10_12_14
combinacoes_20_19_18_11_10_12_2
combinacoes_20_19_18_11_10_12_3
combinacoes_20_19_18_11_10_12_4
combinacoes_20_19_18_11_10_12_5
combinacoes_20_19_18_11_10_12_6
combinacoes_20_19_18_11_10_12_7
combinacoes_20_19_18_11_10_12_8
combinacoes_20_19_18_11_10_12_9
combinacoes_20_19_18_11_10_2
combinacoes_20_19_18_11_10_3
combinacoes_20_19_18_11_10_4
combinacoes_20_19_18_11_10_5
combinacoes_20_19_18_11_10_6
combinacoes_20_19_18_11_10_9_1
combinacoes_20_19_18_11_10_9_10
combinacoes_20_19_18_11_10_9_11
combinacoes_20_19_18_11_10_9_12
combinacoes_20_19_18_11_10_9_13
combinacoes_20_19_18_11_10_9_14
combinacoes_20_19_18_11_10_9_2
combinacoes_20_19_18_11_10_9_3
combinacoes_20_19_18_11_10_9_4
combinacoes_20_19_18_11_10_9_5
combinacoes_20_19_18_11_10_9_6
combinacoes_20_19_18_11_10_9_7
combinacoes_20_19_18_11_10_9_8
combinacoes_20_19_18_11_10_9_9
combinacoes_20_19_18_11_2
combinacoes_20_19_18_21_1
combinacoes_20_19_18_21_2
combinacoes_21_18_11_10_1
combinacoes_21_18_11_10_12_1
combinacoes_21_18_11_10_12_2
combinacoes_21_18_11_10_12_3
combinacoes_21_18_11_10_12_4
combinacoes_21_18_11_10_12_5
combinacoes_21_18_11_10_12_6
combinacoes_21_18_11_10_2
combinacoes_21_18_11_10_9_1
combinacoes_21_18_11_10_9_2
combinacoes_21_18_11_10_9_3
combinacoes_21_18_11_10_9_4
combinacoes_21_18_11_10_9_5
combinacoes_21_18_11_10_9_6
combinacoes_21_18_19_20_1
combinacoes_21_18_19_20_2
combinacoes_9_10_11_18_1
combinacoes_9_10_11_18_19_1
combinacoes_9_10_11_18_19_2
combinacoes_9_10_11_18_19_20_1
combinacoes_9_10_11_18_19_20_10
combinacoes_9_10_11_18_19_20_11
combinacoes_9_10_11_18_19_20_12
combinacoes_9_10_11_18_19_20_13
combinacoes_9_10_11_18_19_20_14
combinacoes_9_10_11_18_19_20_2
combinacoes_9_10_11_18_19_20_3
combinacoes_9_10_11_18_19_20_4
combinacoes_9_10_11_18_19_20_5
combinacoes_9_10_11_18_19_20_6
combinacoes_9_10_11_18_19_20_7
combinacoes_9_10_11_18_19_20_8
combinacoes_9_10_11_18_19_20_9
combinacoes_9_10_11_18_19_3
combinacoes_9_10_11_18_19_4
combinacoes_9_10_11_18_19_5
combinacoes_9_10_11_18_19_6
combinacoes_9_10_11_18_2
combinacoes_9_10_11_18_21_1
combinacoes_9_10_11_18_21_2
combinacoes_9_10_11_18_21_3
combinacoes_9_10_11_18_21_4
combinacoes_9_10_11_18_21_5
combinacoes_9_10_11_18_21_6
End
